WARNING: for repeatability, setting FPU to use double precision
 -----------------------------------------------------------------------------------------------------------------------
|                                 manysat2.0    4 thread(s) on 8 core(s)                                                |
 -----------------------------------------------------------------------------------------------------------------------
 ===============================================[ Problem Statistics ]==================================================
|                                                                                                                       |
|  Number of cores:                 4                                                                                   |
|  Number of variables:         35065                                                                                   |
|  Number of clauses:         1332772                                                                                   |
|  Parse time:                   0.59 s                                                                                 |
|                                                                                                                       |
 ==============================================[ Search Statistics ]====================================================
|   Thread  | Conflicts |          ORIGINAL         |          LEARNT          |  exported  / imported      |  Progress |
|    (id)   |           |    Vars  Clauses Literals |    Limit  Clauses Lit/Cl |  (clauses by restart)      |           |
 =======================================================================================================================
|         3 |       100 |   35055  1332429  3935988 |   488683      112     36 |           0  -          12 |  0.029 %  |
|         2 |       100 |   35055  1332429  3935988 |   488683      151     24 |           0  -          51 |  0.029 %  |
|         1 |       100 |   35055  1332429  3935988 |   488683      165     35 |           0  -          65 |  0.029 %  |
|         0 |       100 |   35055  1332429  3935988 |   488557      170     71 |           0  -          70 |  0.029 %  |
|         2 |       250 |   35055  1332429  3935988 |   537551      332     46 |           0  -          82 |  0.029 %  |
|         2 |       475 |   35055  1332429  3935988 |   591306      620     64 |           0  -         145 |  0.029 %  |
|         3 |       250 |   35055  1332429  3935988 |   537551      390     50 |           0  -         140 |  0.029 %  |
|         1 |       250 |   35055  1332429  3935988 |   537551      409     32 |           0  -         159 |  0.029 %  |
|         1 |       475 |   35055  1332429  3935988 |   591306      667     43 |           0  -         192 |  0.029 %  |
|         2 |       812 |   35055  1332429  3935988 |   650437      997     76 |           0  -         185 |  0.029 %  |
|         0 |       250 |   35055  1332429  3935988 |   537413      532     43 |           0  -         282 |  0.029 %  |
|         1 |       812 |   35055  1332429  3935988 |   650437     1085     61 |           0  -         273 |  0.029 %  |
|         2 |      1318 |   35055  1332429  3935988 |   715480     1584     69 |           0  -         266 |  0.029 %  |
|         0 |       475 |   35055  1332429  3935988 |   591154      842     53 |           0  -         367 |  0.029 %  |
|         2 |      2077 |   35055  1332429  3935988 |   787028     2440     66 |           0  -         363 |  0.029 %  |
|         1 |      1318 |   35055  1332429  3935988 |   715480     1683     56 |           0  -         365 |  0.029 %  |
|         0 |       812 |   35055  1332429  3935988 |   650269     1268     60 |           0  -         456 |  0.029 %  |
|         3 |       475 |   35055  1332429  3935988 |   591306      940     35 |           0  -         465 |  0.029 %  |
|         2 |      3216 |   35055  1332429  3935988 |   865731     3667     96 |           0  -         451 |  0.029 %  |
|         1 |      2077 |   35055  1332429  3935988 |   787028     2563     92 |           0  -         486 |  0.029 %  |
|         3 |       812 |   35055  1332429  3935988 |   650437     1391     41 |           0  -         579 |  0.029 %  |
|         0 |      1318 |   35055  1332429  3935988 |   715296     1921    121 |           0  -         603 |  0.029 %  |
|         1 |      3216 |   35055  1332429  3935988 |   865731     3789    103 |           0  -         573 |  0.029 %  |
|         2 |      4924 |   35055  1332429  3935988 |   952305     5485     95 |           0  -         561 |  0.029 %  |
|         3 |      1318 |   35055  1332429  3935988 |   715480     1990     90 |           0  -         672 |  0.029 %  |
|         1 |      4924 |   35055  1332429  3935988 |   952305     5603     98 |           0  -         679 |  0.029 %  |
|         2 |      7486 |   35055  1332429  3935988 |  1047535     8218    110 |           0  -         732 |  0.029 %  |
|         0 |      2077 |   35055  1332429  3935988 |   786826     2943    109 |           0  -         866 |  0.029 %  |
|         3 |      2077 |   35055  1332429  3935988 |   787028     2919     99 |           0  -         842 |  0.029 %  |
|         1 |      7486 |   35055  1332429  3935988 |  1047535     8348    128 |           0  -         862 |  0.029 %  |
|         0 |      3216 |   35055  1332429  3935988 |   865509     4167    154 |           0  -         951 |  0.029 %  |
|         3 |      3216 |   35055  1332429  3935988 |   865731     4175    192 |           0  -         959 |  0.029 %  |
|         2 |     11330 |   35055  1332429  3935988 |  1152289    12264    125 |           0  -         934 |  0.029 %  |
|         0 |      4924 |   35055  1332429  3935988 |   952059     6007    186 |           0  -        1083 |  0.029 %  |
|         3 |      4924 |   35055  1332429  3935988 |   952305     6027    196 |           0  -        1102 |  0.029 %  |
|         1 |     11330 |   35055  1332429  3935988 |  1152289    12389    148 |           0  -        1059 |  0.029 %  |
|         3 |      7486 |   35055  1332429  3935988 |  1047535     8620    220 |           0  -        1133 |  0.029 %  |
|         2 |     17096 |   35055  1332429  3935988 |  1267518    18253    150 |           0  -        1157 |  0.029 %  |
|         0 |      7486 |   35055  1332429  3935988 |  1047265     8775    260 |           0  -        1288 |  0.029 %  |
|         1 |     17096 |   35055  1332429  3935988 |  1267518    18442    155 |           0  -        1346 |  0.029 %  |
|         3 |     11330 |   35055  1332429  3935988 |  1152289    12859    302 |           0  -        1527 |  0.029 %  |
|         2 |     25745 |   35055  1332429  3935988 |  1394269    27242    136 |           0  -        1497 |  0.029 %  |
|         0 |     11330 |   35055  1332429  3935988 |  1151992    13040    366 |           0  -        1709 |  0.029 %  |
|         1 |     25745 |   35055  1332429  3935988 |  1394269    27492    159 |           0  -        1747 |  0.029 %  |
|         0 |     17096 |   35055  1332429  3935988 |  1267191    19000    376 |           0  -        1903 |  0.029 %  |
|         3 |     17096 |   35055  1332429  3935988 |  1267518    19015    331 |           0  -        1917 |  0.029 %  |
|         1 |     38719 |   35055  1332429  3935988 |  1533696    40878    157 |           0  -        2159 |  0.029 %  |
|         2 |     38719 |   35055  1332429  3935988 |  1533696    40702    128 |           0  -        1983 |  0.029 %  |
|         0 |     25745 |   35055  1332429  3935988 |  1393910    27790    346 |           0  -        2044 |  0.029 %  |
|         3 |     25745 |   35055  1332429  3935988 |  1394269    27858    359 |           0  -        2111 |  0.029 %  |
|         1 |     58180 |   35055  1332429  3935988 |  1687066    60656    160 |           0  -        2476 |  0.029 %  |
|         2 |     58180 |   35055  1332429  3935988 |  1687066    60417    117 |           0  -        2237 |  0.029 %  |
|         3 |     38719 |   35055  1332429  3935988 |  1533696    41113    500 |           0  -        2392 |  0.029 %  |
|         0 |     38719 |   35055  1332429  3935988 |  1533302    41010    633 |           0  -        2290 |  0.029 %  |
|         1 |     87372 |   35055  1332429  3935988 |  1855773    90086    166 |           0  -        2714 |  0.029 %  |
|         2 |     87372 |   35055  1332429  3935988 |  1855773    89787    115 |           0  -        2415 |  0.029 %  |
|         0 |     58180 |   35055  1332429  3935988 |  1686632    60697    803 |           0  -        2516 |  0.029 %  |
|         3 |     58180 |   35055  1332429  3935988 |  1687066    60867    612 |           0  -        2685 |  0.029 %  |
|         1 |    131161 |   35055  1332429  3935988 |  2041350   134151    168 |           0  -        2990 |  0.029 %  |
|         2 |    131161 |   35055  1332429  3935988 |  2041350   133812    106 |           0  -        2651 |  0.029 %  |
|         3 |     87372 |   35055  1332429  3935988 |  1855773    90236    666 |           0  -        2862 |  0.029 %  |
|         0 |     87372 |   35055  1332429  3935988 |  1855295    90132    828 |           0  -        2759 |  0.029 %  |
|         1 |    196845 |   35055  1332429  3935988 |  2245485   200341    163 |           0  -        3496 |  0.029 %  |
|         2 |    196845 |   35055  1332429  3935988 |  2245485   199823    190 |           0  -        2978 |  0.029 %  |
|         3 |    131161 |   35055  1332429  3935988 |  2041350   134752    803 |           0  -        3589 |  0.029 %  |
|         0 |    131161 |   35055  1332429  3935988 |  2040825   134608    821 |           0  -        3446 |  0.029 %  |
